Route #1: 77 23 44 26 11 64 40
Route #2: 1 52 24 21 43 69 67 72 17
Route #3: 58 38 56 12 34 15 71 22 8
Route #4: 76 32 73 31 46 45 51
Route #5: 30 37 70 29 57 75 65
Route #6: 27 49 5 63 2
Route #7: 66 60 6 62 54 20 3 7 47
Route #8: 50 61 39 48 74 28
Route #9: 41 14 36 4 59 35 55 33 13 19 9
Route #10: 53 68 10 25 18 16 42
Cost 1221
Time 0.443328
Tempo = 0.4575018999967142